Code 2434
Dimension, Median
   128       16     
 Facility, Client, Transportation Cost
     1        1           4
     1        2           3
     1        3           2
     1        5           4
     1        9           4
     1       17           4
     1       33           4
     1       65           4
     2        1           1
     2        2           2
     2        4           4
     2        6           1
     2       10           2
     2       18           4
     2       34           0
     2       66           3
     3        1           3
     3        3           1
     3        4           4
     3        7           1
     3       11           1
     3       19           0
     3       35           0
     3       67           3
     4        2           0
     4        3           2
     4        4           2
     4        8           1
     4       12           2
     4       20           4
     4       36           0
     4       68           0
     5        1           4
     5        5           1
     5        6           1
     5        7           2
     5       13           4
     5       21           1
     5       37           2
     5       69           2
     6        2           2
     6        5           4
     6        6           4
     6        8           4
     6       14           0
     6       22           4
     6       38           4
     6       70           1
     7        3           2
     7        5           4
     7        7           0
     7        8           3
     7       15           3
     7       23           2
     7       39           2
     7       71           1
     8        4           3
     8        6           2
     8        7           1
     8        8           1
     8       16           0
     8       24           3
     8       40           3
     8       72           1
     9        1           0
     9        9           2
     9       10           4
     9       11           0
     9       13           3
     9       25           3
     9       41           3
     9       73           2
    10        2           3
    10        9           1
    10       10           3
    10       12           1
    10       14           2
    10       26           1
    10       42           1
    10       74           2
    11        3           0
    11        9           0
    11       11           0
    11       12           0
    11       15           4
    11       27           2
    11       43           2
    11       75           1
    12        4           4
    12       10           0
    12       11           0
    12       12           4
    12       16           2
    12       28           2
    12       44           3
    12       76           0
    13        5           2
    13        9           1
    13       13           0
    13       14           2
    13       15           3
    13       29           3
    13       45           2
    13       77           4
    14        6           0
    14       10           3
    14       13           2
    14       14           3
    14       16           3
    14       30           3
    14       46           4
    14       78           2
    15        7           4
    15       11           3
    15       13           4
    15       15           2
    15       16           4
    15       31           4
    15       47           0
    15       79           4
    16        8           4
    16       12           3
    16       14           4
    16       15           0
    16       16           1
    16       32           4
    16       48           0
    16       80           1
    17        1           3
    17       17           1
    17       18           2
    17       19           0
    17       21           0
    17       25           0
    17       49           4
    17       81           0
    18        2           4
    18       17           2
    18       18           2
    18       20           1
    18       22           2
    18       26           2
    18       50           1
    18       82           3
    19        3           1
    19       17           2
    19       19           0
    19       20           4
    19       23           0
    19       27           0
    19       51           3
    19       83           3
    20        4           2
    20       18           1
    20       19           1
    20       20           1
    20       24           1
    20       28           2
    20       52           4
    20       84           1
    21        5           1
    21       17           0
    21       21           1
    21       22           0
    21       23           0
    21       29           4
    21       53           0
    21       85           3
    22        6           3
    22       18           2
    22       21           2
    22       22           0
    22       24           3
    22       30           2
    22       54           0
    22       86           3
    23        7           2
    23       19           1
    23       21           1
    23       23           4
    23       24           2
    23       31           1
    23       55           1
    23       87           1
    24        8           3
    24       20           4
    24       22           1
    24       23           4
    24       24           3
    24       32           1
    24       56           1
    24       88           0
    25        9           1
    25       17           0
    25       25           1
    25       26           1
    25       27           0
    25       29           3
    25       57           1
    25       89           3
    26       10           1
    26       18           0
    26       25           0
    26       26           0
    26       28           0
    26       30           4
    26       58           1
    26       90           3
    27       11           0
    27       19           4
    27       25           2
    27       27           1
    27       28           1
    27       31           3
    27       59           4
    27       91           3
    28       12           2
    28       20           1
    28       26           0
    28       27           1
    28       28           4
    28       32           3
    28       60           4
    28       92           0
    29       13           3
    29       21           2
    29       25           2
    29       29           3
    29       30           3
    29       31           0
    29       61           4
    29       93           2
    30       14           3
    30       22           1
    30       26           2
    30       29           4
    30       30           4
    30       32           0
    30       62           0
    30       94           3
    31       15           3
    31       23           0
    31       27           4
    31       29           2
    31       31           1
    31       32           4
    31       63           0
    31       95           2
    32       16           0
    32       24           1
    32       28           2
    32       30           0
    32       31           1
    32       32           4
    32       64           0
    32       96           4
    33        1           0
    33       33           2
    33       34           0
    33       35           1
    33       37           1
    33       41           4
    33       49           4
    33       97           1
    34        2           4
    34       33           1
    34       34           3
    34       36           1
    34       38           1
    34       42           3
    34       50           1
    34       98           1
    35        3           0
    35       33           4
    35       35           3
    35       36           2
    35       39           0
    35       43           2
    35       51           2
    35       99           0
    36        4           0
    36       34           0
    36       35           3
    36       36           4
    36       40           1
    36       44           0
    36       52           2
    36      100           1
    37        5           2
    37       33           3
    37       37           1
    37       38           1
    37       39           3
    37       45           1
    37       53           2
    37      101           1
    38        6           1
    38       34           1
    38       37           2
    38       38           4
    38       40           1
    38       46           4
    38       54           3
    38      102           3
    39        7           3
    39       35           0
    39       37           3
    39       39           0
    39       40           1
    39       47           2
    39       55           1
    39      103           2
    40        8           1
    40       36           1
    40       38           2
    40       39           0
    40       40           1
    40       48           0
    40       56           1
    40      104           4
    41        9           0
    41       33           2
    41       41           2
    41       42           3
    41       43           1
    41       45           4
    41       57           4
    41      105           4
    42       10           3
    42       34           2
    42       41           3
    42       42           2
    42       44           4
    42       46           1
    42       58           4
    42      106           0
    43       11           2
    43       35           2
    43       41           4
    43       43           4
    43       44           4
    43       47           2
    43       59           4
    43      107           0
    44       12           2
    44       36           0
    44       42           1
    44       43           1
    44       44           2
    44       48           1
    44       60           1
    44      108           3
    45       13           1
    45       37           0
    45       41           4
    45       45           3
    45       46           2
    45       47           0
    45       61           3
    45      109           1
    46       14           2
    46       38           4
    46       42           1
    46       45           3
    46       46           0
    46       48           4
    46       62           0
    46      110           2
    47       15           0
    47       39           0
    47       43           1
    47       45           4
    47       47           4
    47       48           4
    47       63           1
    47      111           2
    48       16           4
    48       40           2
    48       44           0
    48       46           3
    48       47           3
    48       48           0
    48       64           4
    48      112           4
    49       17           2
    49       33           0
    49       49           0
    49       50           4
    49       51           2
    49       53           4
    49       57           1
    49      113           1
    50       18           4
    50       34           0
    50       49           1
    50       50           3
    50       52           3
    50       54           0
    50       58           3
    50      114           3
    51       19           1
    51       35           4
    51       49           3
    51       51           1
    51       52           0
    51       55           2
    51       59           1
    51      115           1
    52       20           4
    52       36           1
    52       50           2
    52       51           3
    52       52           3
    52       56           3
    52       60           1
    52      116           3
    53       21           0
    53       37           4
    53       49           2
    53       53           0
    53       54           4
    53       55           3
    53       61           4
    53      117           1
    54       22           0
    54       38           0
    54       50           4
    54       53           3
    54       54           0
    54       56           0
    54       62           3
    54      118           3
    55       23           4
    55       39           2
    55       51           0
    55       53           4
    55       55           4
    55       56           3
    55       63           3
    55      119           0
    56       24           3
    56       40           3
    56       52           3
    56       54           0
    56       55           4
    56       56           4
    56       64           0
    56      120           2
    57       25           2
    57       41           4
    57       49           4
    57       57           0
    57       58           2
    57       59           4
    57       61           3
    57      121           2
    58       26           2
    58       42           1
    58       50           0
    58       57           2
    58       58           0
    58       60           4
    58       62           3
    58      122           4
    59       27           0
    59       43           2
    59       51           4
    59       57           2
    59       59           3
    59       60           2
    59       63           3
    59      123           0
    60       28           2
    60       44           2
    60       52           1
    60       58           0
    60       59           4
    60       60           1
    60       64           0
    60      124           3
    61       29           1
    61       45           2
    61       53           2
    61       57           0
    61       61           0
    61       62           1
    61       63           1
    61      125           3
    62       30           1
    62       46           4
    62       54           1
    62       58           3
    62       61           3
    62       62           1
    62       64           4
    62      126           2
    63       31           0
    63       47           0
    63       55           0
    63       59           4
    63       61           4
    63       63           3
    63       64           4
    63      127           0
    64       32           3
    64       48           4
    64       56           2
    64       60           2
    64       62           2
    64       63           2
    64       64           0
    64      128           0
    65        1           2
    65       65           1
    65       66           3
    65       67           3
    65       69           3
    65       73           4
    65       81           0
    65       97           0
    66        2           3
    66       65           0
    66       66           3
    66       68           0
    66       70           2
    66       74           4
    66       82           1
    66       98           4
    67        3           3
    67       65           4
    67       67           4
    67       68           3
    67       71           0
    67       75           1
    67       83           2
    67       99           3
    68        4           4
    68       66           4
    68       67           2
    68       68           1
    68       72           3
    68       76           1
    68       84           4
    68      100           2
    69        5           1
    69       65           3
    69       69           3
    69       70           1
    69       71           1
    69       77           4
    69       85           4
    69      101           3
    70        6           3
    70       66           2
    70       69           4
    70       70           2
    70       72           0
    70       78           3
    70       86           3
    70      102           4
    71        7           0
    71       67           1
    71       69           4
    71       71           1
    71       72           4
    71       79           1
    71       87           1
    71      103           3
    72        8           1
    72       68           3
    72       70           1
    72       71           3
    72       72           1
    72       80           3
    72       88           4
    72      104           3
    73        9           0
    73       65           1
    73       73           4
    73       74           0
    73       75           4
    73       77           0
    73       89           3
    73      105           1
    74       10           0
    74       66           0
    74       73           1
    74       74           2
    74       76           1
    74       78           0
    74       90           4
    74      106           0
    75       11           4
    75       67           0
    75       73           2
    75       75           1
    75       76           0
    75       79           1
    75       91           2
    75      107           0
    76       12           1
    76       68           0
    76       74           2
    76       75           3
    76       76           1
    76       80           3
    76       92           2
    76      108           4
    77       13           0
    77       69           2
    77       73           0
    77       77           4
    77       78           4
    77       79           0
    77       93           2
    77      109           1
    78       14           3
    78       70           1
    78       74           2
    78       77           2
    78       78           3
    78       80           3
    78       94           1
    78      110           2
    79       15           2
    79       71           2
    79       75           1
    79       77           4
    79       79           4
    79       80           4
    79       95           0
    79      111           0
    80       16           3
    80       72           1
    80       76           1
    80       78           1
    80       79           2
    80       80           2
    80       96           4
    80      112           1
    81       17           1
    81       65           4
    81       81           2
    81       82           4
    81       83           4
    81       85           0
    81       89           2
    81      113           1
    82       18           4
    82       66           3
    82       81           0
    82       82           4
    82       84           3
    82       86           1
    82       90           1
    82      114           0
    83       19           4
    83       67           1
    83       81           2
    83       83           0
    83       84           0
    83       87           0
    83       91           0
    83      115           3
    84       20           2
    84       68           2
    84       82           0
    84       83           1
    84       84           2
    84       88           2
    84       92           1
    84      116           0
    85       21           2
    85       69           0
    85       81           4
    85       85           4
    85       86           0
    85       87           1
    85       93           1
    85      117           1
    86       22           2
    86       70           2
    86       82           3
    86       85           0
    86       86           3
    86       88           0
    86       94           3
    86      118           1
    87       23           1
    87       71           4
    87       83           2
    87       85           0
    87       87           4
    87       88           0
    87       95           3
    87      119           3
    88       24           4
    88       72           4
    88       84           1
    88       86           2
    88       87           0
    88       88           2
    88       96           0
    88      120           0
    89       25           0
    89       73           2
    89       81           0
    89       89           2
    89       90           1
    89       91           2
    89       93           4
    89      121           1
    90       26           3
    90       74           4
    90       82           2
    90       89           1
    90       90           3
    90       92           1
    90       94           1
    90      122           4
    91       27           2
    91       75           4
    91       83           1
    91       89           3
    91       91           3
    91       92           2
    91       95           4
    91      123           1
    92       28           0
    92       76           2
    92       84           4
    92       90           1
    92       91           0
    92       92           1
    92       96           0
    92      124           3
    93       29           0
    93       77           0
    93       85           3
    93       89           3
    93       93           2
    93       94           2
    93       95           3
    93      125           0
    94       30           1
    94       78           3
    94       86           0
    94       90           0
    94       93           1
    94       94           3
    94       96           4
    94      126           4
    95       31           2
    95       79           0
    95       87           2
    95       91           4
    95       93           3
    95       95           4
    95       96           3
    95      127           2
    96       32           3
    96       80           2
    96       88           0
    96       92           2
    96       94           0
    96       95           2
    96       96           4
    96      128           3
    97       33           1
    97       65           4
    97       97           3
    97       98           4
    97       99           0
    97      101           2
    97      105           1
    97      113           1
    98       34           0
    98       66           4
    98       97           2
    98       98           0
    98      100           3
    98      102           0
    98      106           0
    98      114           3
    99       35           1
    99       67           3
    99       97           1
    99       99           2
    99      100           2
    99      103           3
    99      107           0
    99      115           4
   100       36           3
   100       68           0
   100       98           0
   100       99           0
   100      100           3
   100      104           1
   100      108           4
   100      116           1
   101       37           1
   101       69           0
   101       97           1
   101      101           1
   101      102           2
   101      103           4
   101      109           2
   101      117           0
   102       38           2
   102       70           1
   102       98           3
   102      101           3
   102      102           2
   102      104           3
   102      110           3
   102      118           0
   103       39           1
   103       71           3
   103       99           1
   103      101           0
   103      103           0
   103      104           3
   103      111           2
   103      119           2
   104       40           3
   104       72           1
   104      100           1
   104      102           4
   104      103           1
   104      104           4
   104      112           4
   104      120           1
   105       41           1
   105       73           4
   105       97           4
   105      105           2
   105      106           3
   105      107           1
   105      109           4
   105      121           0
   106       42           1
   106       74           0
   106       98           0
   106      105           4
   106      106           1
   106      108           3
   106      110           1
   106      122           3
   107       43           1
   107       75           2
   107       99           0
   107      105           4
   107      107           3
   107      108           3
   107      111           2
   107      123           2
   108       44           0
   108       76           2
   108      100           0
   108      106           3
   108      107           1
   108      108           4
   108      112           0
   108      124           4
   109       45           4
   109       77           1
   109      101           1
   109      105           2
   109      109           4
   109      110           4
   109      111           3
   109      125           0
   110       46           3
   110       78           4
   110      102           2
   110      106           4
   110      109           1
   110      110           1
   110      112           4
   110      126           4
   111       47           2
   111       79           0
   111      103           0
   111      107           3
   111      109           2
   111      111           3
   111      112           0
   111      127           0
   112       48           0
   112       80           0
   112      104           4
   112      108           2
   112      110           2
   112      111           4
   112      112           1
   112      128           2
   113       49           0
   113       81           2
   113       97           1
   113      113           2
   113      114           2
   113      115           2
   113      117           0
   113      121           3
   114       50           4
   114       82           0
   114       98           1
   114      113           4
   114      114           3
   114      116           0
   114      118           3
   114      122           3
   115       51           2
   115       83           3
   115       99           2
   115      113           2
   115      115           3
   115      116           2
   115      119           3
   115      123           2
   116       52           2
   116       84           4
   116      100           1
   116      114           2
   116      115           0
   116      116           2
   116      120           0
   116      124           3
   117       53           4
   117       85           3
   117      101           2
   117      113           2
   117      117           1
   117      118           4
   117      119           1
   117      125           4
   118       54           0
   118       86           1
   118      102           0
   118      114           2
   118      117           1
   118      118           3
   118      120           0
   118      126           2
   119       55           0
   119       87           1
   119      103           3
   119      115           3
   119      117           0
   119      119           3
   119      120           0
   119      127           3
   120       56           4
   120       88           2
   120      104           0
   120      116           2
   120      118           1
   120      119           3
   120      120           3
   120      128           0
   121       57           3
   121       89           1
   121      105           3
   121      113           2
   121      121           1
   121      122           3
   121      123           4
   121      125           0
   122       58           0
   122       90           4
   122      106           0
   122      114           2
   122      121           3
   122      122           4
   122      124           1
   122      126           2
   123       59           3
   123       91           1
   123      107           4
   123      115           1
   123      121           4
   123      123           3
   123      124           0
   123      127           4
   124       60           2
   124       92           0
   124      108           3
   124      116           0
   124      122           3
   124      123           1
   124      124           4
   124      128           0
   125       61           3
   125       93           0
   125      109           4
   125      117           4
   125      121           2
   125      125           4
   125      126           4
   125      127           0
   126       62           3
   126       94           2
   126      110           3
   126      118           4
   126      122           2
   126      125           1
   126      126           0
   126      128           3
   127       63           4
   127       95           4
   127      111           4
   127      119           1
   127      123           4
   127      125           2
   127      127           0
   127      128           0
   128       64           0
   128       96           4
   128      112           1
   128      120           0
   128      124           1
   128      126           4
   128      127           1
   128      128           0
